Version identifier: 22.1.1.0 | 2022-11-28 | 9160aff4d
CPXPARAM_ClockType                               1
CPXPARAM_Read_DataCheck                          1
CPXPARAM_Threads                                 1
CPXPARAM_TimeLimit                               7200
CPXPARAM_MIP_Tolerances_AbsMIPGap                0
CPXPARAM_MIP_Tolerances_MIPGap                   0
CPXPARAM_MIP_Tolerances_Integrality              0
Tried aggregator 1 time.
MIP Presolve eliminated 587 rows and 9 columns.
MIP Presolve modified 18 coefficients.
Reduced MIP has 37484 rows, 9591 columns, and 154416 nonzeros.
Reduced MIP has 9591 binaries, 0 generals, 0 SOSs, and 0 indicators.
Presolve time = 0.10 sec. (70.29 ticks)
Probing time = 0.01 sec. (5.10 ticks)
Tried aggregator 1 time.
Detecting symmetries...
Reduced MIP has 37484 rows, 9591 columns, and 154416 nonzeros.
Reduced MIP has 9591 binaries, 0 generals, 0 SOSs, and 0 indicators.
Presolve time = 0.16 sec. (86.89 ticks)
Probing time = 0.01 sec. (5.12 ticks)
Clique table members: 3785.
MIP emphasis: balance optimality and feasibility.
MIP search method: dynamic search.
Parallel mode: none, using 1 thread.
Root relaxation solution time = 10.88 sec. (3515.41 ticks)

        Nodes                                         Cuts/
   Node  Left     Objective  IInf  Best Integer    Best Bound    ItCnt     Gap

      0     0     8000.0000  1720                   8000.0000    10007         
      0     0     8000.0000  2267                  Cuts: 1183    66059         
      0     0     8000.0000  2500                  Cuts: 1728   134002         
Heuristic still looking.
Detecting symmetries...
      0     2     8000.0000  2127                   8000.0000   134002         
Elapsed time = 1166.09 sec. (466239.15 ticks, tree = 0.01 MB, solutions = 0)
      1     3     8000.0000  2458                   8000.0000   313646         
      2     4     8000.0000  2270                   8000.0000   359223         
      3     5     8000.0000  2443                   8000.0000   409513         
      4     6     8000.0000  2255                   8000.0000   409896         
      5     7     8000.0000  2239                   8000.0000   410799         
      6     8     8000.0000  2234                   8000.0000   411792         
      7     9     8000.0000  2164                   8000.0000   451398         
      8    10     8000.0000  2025                   8000.0000   476339         
      9    11     8000.0000  2014                   8000.0000   476474         
     10    12     8000.0000  2093                   8000.0000   476477         
Elapsed time = 3026.13 sec. (949701.58 ticks, tree = 0.93 MB, solutions = 0)
     11    13     8000.0000  2052                   8000.0000   478046         
     12    14     8000.0000  2256                   8000.0000   485456         
     13    15     8000.0000  2188                   8000.0000   486331         
     14    16     8000.0000  2177                   8000.0000   501902         
     16    18     8000.0000  1592                   8000.0000   504508         
     18    20     8000.0000  1585                   8000.0000   506619         
     20    22     8000.0000  1584                   8000.0000   507741         
     21    23     8000.0000  1619                   8000.0000   508172         
     25    27     8000.0000  1585                   8000.0000   509552         
     27    29     8000.0000  1589                   8000.0000   510096         
Elapsed time = 3151.60 sec. (996686.56 ticks, tree = 3.63 MB, solutions = 0)
     29    31     8000.0000  1576                   8000.0000   510907         
     31    33     8000.0000  1575                   8000.0000   513427         
     32    34     8000.0000  1574                   8000.0000   514048         
     34    36     8000.0000  1586                   8000.0000   514389         
     36    38     8000.0000  1580                   8000.0000   515037         
     38    40     8000.0000  1580                   8000.0000   515723         
     40    42     8000.0000  1568                   8000.0000   518039         
     42    44     8000.0000  1568                   8000.0000   518344         
     44    46     8000.0000  1566                   8000.0000   519185         
     47    49     8000.0000  1577                   8000.0000   520271         
Elapsed time = 3192.96 sec. (1011620.05 ticks, tree = 6.93 MB, solutions = 0)
     49    51     8000.0000  1618                   8000.0000   522059         
     51    53     8000.0000  1630                   8000.0000   523112         
     53    55     8000.0000  1570                   8000.0000   524194         
     56    58     8000.0000  1568                   8000.0000   524879         
     60    62     8000.0000  1571                   8000.0000   526207         
     63    65     8000.0000  1562                   8000.0000   528568         
     70    72     8000.0000  1557                   8000.0000   530291         
     72    74     8000.0000  1569                   8000.0000   531750         
     75    77     8000.0000  1556                   8000.0000   533466         
     77    79     8000.0000  1558                   8000.0000   535700         
Elapsed time = 3230.53 sec. (1026097.48 ticks, tree = 9.43 MB, solutions = 0)
     79    81     8000.0000  1555                   8000.0000   537224         
     80    82     8000.0000  1553                   8000.0000   538453         
     84    86     8000.0000  1555                   8000.0000   540139         
     85    87     8000.0000  1569                   8000.0000   541967         
     89    91     8000.0000  1555                   8000.0000   543453         
     91    93     8000.0000  1566                   8000.0000   545062         
     96    98     8000.0000  1562                   8000.0000   546703         
     99   101     8000.0000  1561                   8000.0000   548550         
    100   102     8000.0000  1556                   8000.0000   548905         
    103   105     8000.0000  1555                   8000.0000   549622         
Elapsed time = 3431.43 sec. (1102449.77 ticks, tree = 11.33 MB, solutions = 0)
    106   108     8000.0000  1624                   8000.0000   551267         
    109   111     8000.0000  1559                   8000.0000   552929         
    114   116     8000.0000  1557                   8000.0000   553726         
    117   119     8000.0000  1548                   8000.0000   555349         
    120   122     8000.0000  1569                   8000.0000   560223         
    123   125     8000.0000  1565                   8000.0000   561633         
    129   131     8000.0000  1556                   8000.0000   563462         
    130   132     8000.0000  1556                   8000.0000   564690         
    135   137     8000.0000  1558                   8000.0000   566342         
    137   139     8000.0000  1558                   8000.0000   568724         
Elapsed time = 3463.98 sec. (1116169.12 ticks, tree = 12.73 MB, solutions = 0)
    139   141     8000.0000  1559                   8000.0000   570477         
    141   143     8000.0000  1555                   8000.0000   571393         
    146   148     8000.0000  1552                   8000.0000   572714         
    149   151     8000.0000  1634                   8000.0000   574489         
    150   152     8000.0000  1552                   8000.0000   575761         
    153   155     8000.0000  1567                   8000.0000   577422         
    157   159     8000.0000  1552                   8000.0000   579034         
    161   163     8000.0000  1555                   8000.0000   580011         
    163   165     8000.0000  1557                   8000.0000   581964         
    166   168     8000.0000  1550                   8000.0000   583363         
Elapsed time = 3495.03 sec. (1127777.77 ticks, tree = 14.66 MB, solutions = 0)
    170   172     8000.0000  1548                   8000.0000   584446         
    173   175     8000.0000  1545                   8000.0000   586137         
    176   178     8000.0000  1554                   8000.0000   587814         
    179   181     8000.0000  1544                   8000.0000   589741         
    180   182     8000.0000  1545                   8000.0000   590549         
    184   186     8000.0000  1545                   8000.0000   591949         
    187   189     8000.0000  1543                   8000.0000   593782         
    189   191     8000.0000  1545                   8000.0000   595917         
    190   192     8000.0000  1548                   8000.0000   596646         
    193   195     8000.0000  1545                   8000.0000   598501         
Elapsed time = 3525.04 sec. (1139889.74 ticks, tree = 16.30 MB, solutions = 0)
    197   199     8000.0000  1552                   8000.0000   600724         
    200   202     8000.0000  1543                   8000.0000   602255         
    202   204     8000.0000  1545                   8000.0000   604344         
    208   210     8000.0000  1541                   8000.0000   605970         
    211   213     8000.0000  1545                   8000.0000   606926         
    215   217     8000.0000  1538                   8000.0000   609190         
    217   219     8000.0000  1538                   8000.0000   610925         
    220   222     8000.0000  1539                   8000.0000   612678         
    223   225     8000.0000  1537                   8000.0000   614255         
    226   228     8000.0000  1547                   8000.0000   617533         
Elapsed time = 3671.51 sec. (1193615.88 ticks, tree = 17.97 MB, solutions = 0)
    227   229     8000.0000  1547                   8000.0000   620198         
    229   231     8000.0000  1546                   8000.0000   622068         
    231   233     8000.0000  1543                   8000.0000   623156         
    235   237     8000.0000  1539                   8000.0000   624751         
    239   241     8000.0000  1537                   8000.0000   627255         
    240   242     8000.0000  1537                   8000.0000   628046         
    243   245     8000.0000  1537                   8000.0000   629644         
    245   247     8000.0000  1535                   8000.0000   631266         
    247   249     8000.0000  1555                   8000.0000   634096         
    252   254     8000.0000  1552                   8000.0000   639665         
Elapsed time = 3715.05 sec. (1211952.83 ticks, tree = 19.60 MB, solutions = 0)
    257   259     8000.0000  1582                   8000.0000   650858         
    263   265     8000.0000  1571                   8000.0000   656788         
    273   275     8000.0000  1571                   8000.0000   662398         
    283   285     8000.0000  1588                   8000.0000   668076         
    284   286     7999.0000  2048                   8000.0000   687135         
    285   287     7999.0000  2143                   8000.0000   714251         
    286   288     7999.0000  2046                   8000.0000   734077         
    287   289     7998.0000  2045                   8000.0000   752877         
    288   290     7999.0000  1657                   8000.0000   761101         
    289   291     7996.0000  1637                   8000.0000   765918         
Elapsed time = 4122.24 sec. (1362159.25 ticks, tree = 21.61 MB, solutions = 0)
    292   294     7995.0000  2033                   8000.0000   788451         
    293   295     7995.0000  1620                   8000.0000   793888         
    295   297     7995.0000  1989                   8000.0000   807068         
    296   298     7995.0000  1999                   8000.0000   819732         
    298   300     7995.0000  1667                   8000.0000   826294         
    299   301     7995.0000  2051                   8000.0000   849901         
    300   302     7995.0000  1910                   8000.0000   866971         
    309   311     7995.0000  1629                   8000.0000   875420         
    314   316     7995.0000  1626                   8000.0000   882579         
    324   326     7995.0000  1620                   8000.0000   887499         
Elapsed time = 4472.27 sec. (1505013.27 ticks, tree = 25.90 MB, solutions = 0)
    339   341     7995.0000  1606                   8000.0000   892957         
    341   343     7995.0000  1655                   8000.0000   902116         
    346   348     7995.0000  1935                   8000.0000   912313         
    347   349     7995.0000  2125                   8000.0000   936967         
    349   347    infeasible                         8000.0000   938670         
    350   348     8000.0000  1974                   8000.0000   965822         
    358   356     8000.0000  1583                   8000.0000   969642         
    364   362     8000.0000  1582                   8000.0000   971726         
    371   369     8000.0000  1576                   8000.0000   974195         
    377   375     8000.0000  1573                   8000.0000   977619         
Elapsed time = 4844.38 sec. (1659957.29 ticks, tree = 30.29 MB, solutions = 0)
    380   378     8000.0000  2132                   8000.0000  1006915         
    385   383     8000.0000  1563                   8000.0000  1010155         
    392   390     8000.0000  1567                   8000.0000  1012364         
    397   395     8000.0000  1562                   8000.0000  1015434         
    404   402     8000.0000  1595                   8000.0000  1018634         
    413   411     8000.0000  1555                   8000.0000  1023713         
    424   422     8000.0000  1559                   8000.0000  1029522         
    433   431     8000.0000  1584                   8000.0000  1042765         
    446   444     8000.0000  1609                   8000.0000  1048575         
    458   456     8000.0000  1543                   8000.0000  1053780         
Elapsed time = 5061.80 sec. (1748861.44 ticks, tree = 37.77 MB, solutions = 0)
    460   458     8000.0000  1577                   8000.0000  1063914         

Performing restart 1

Repeating presolve.
Tried aggregator 1 time.
Reduced MIP has 37484 rows, 9591 columns, and 154416 nonzeros.
Reduced MIP has 9591 binaries, 0 generals, 0 SOSs, and 0 indicators.
Presolve time = 0.10 sec. (64.49 ticks)
Tried aggregator 1 time.
MIP Presolve eliminated 0 rows and 3 columns.
MIP Presolve modified 14 coefficients.
Reduced MIP has 37484 rows, 9588 columns, and 154412 nonzeros.
Reduced MIP has 9588 binaries, 0 generals, 0 SOSs, and 0 indicators.
Presolve time = 0.25 sec. (136.43 ticks)
Represolve time = 0.50 sec. (267.73 ticks)
    474     0     8000.0000  2298                  Cuts: 1410  1139527         
    474     0     8000.0000  2310                   Cuts: 160  1189913         
    474     0     8000.0000  2316                   Cuts: 146  1241401         
    474     0     8000.0000  2158                   Cuts: 116  1287711         

Clique cuts applied:  26
Zero-half cuts applied:  1846
Gomory fractional cuts applied:  31

Root node processing (before b&c):
  Real time             = 1166.07 sec. (466225.52 ticks)
Sequential b&c:
  Real time             = 6033.99 sec. (2057496.94 ticks)
                          ------------
Total (root+branch&cut) = 7200.06 sec. (2523722.46 ticks)
Solution is infeasible.

---------------------
@@@ MIP_time_limit_infeasible
Traceback (most recent call last):
  File "/scratch/scherif/DiverseSAT-journal_sup/DiverseSAT_Supplementary_Experiments/experiment-1/cplex/jobs/../solvers/CPLEX-DW-SE.py", line 104, in <module>
    print(f">>> Benchmark {os.path.basename(cnf_file)} k {k} OPT {int(prob.solution.get_objective_value())}"
  File "/users/scherif/.local/lib/python3.9/site-packages/cplex/_internal/_subinterfaces.py", line 7211, in get_objective_value
    return CPX_PROC.getobjval(self._env._e, self._cplex._lp)
  File "/users/scherif/.local/lib/python3.9/site-packages/cplex/_internal/_procedural.py", line 2055, in getobjval
    check_status(env, status)
  File "/users/scherif/.local/lib/python3.9/site-packages/cplex/_internal/_procedural.py", line 249, in __call__
    raise CplexSolverError(error_string, env, status)
cplex.exceptions.errors.CplexSolverError: CPLEX Error  1217: No solution exists.
